(set-info :Origin "This instance was generated by: BanditFuzz-- an RL fuzzer for SMT solvers" )
(set-info :Author "Joe Scott, Fed Mora, Vijay Ganesh" )
(set-info :Contact "Joe Scott, joseph.scott@uwaterloo.ca")
(set-logic QF_BV)
(declare-const bool_0 Bool)
(declare-const bool_1 Bool)
(declare-const bool_2 Bool)
(declare-const bool_3 Bool)
(declare-const bool_4 Bool)
(declare-const bv_0 (_ BitVec 32))
(declare-const bv_1 (_ BitVec 32))
(declare-const bv_2 (_ BitVec 32))
(declare-const bv_3 (_ BitVec 32))
(declare-const bv_4 (_ BitVec 32))
(assert (bvuge (bvsmod (bvnand #x77473870  #xf62a223b ) (bvnand #x30e14b9d  #x18403b12 )) (bvsub (bvashr #x35cb1a77  #x170b464a ) (bvnor #xb32b0409  bv_0))))
(assert (bvuge (bvashr (bvadd bv_1 #x0449b0b5 ) (bvshl bv_4 bv_2)) (bvnand (bvsmod #x982bffb4  #x75b54e82 ) (bvsmod #x90d8292d  #xba3b13fe ))))
(assert (bvsgt (bvsmod (bvor #xf61af72d  bv_4) (bvnand bv_0 #xce79b0a1 )) (bvadd (bvxnor #x2301c682  bv_2) (bvnand bv_3 #xe7b4b98f ))))
(assert (=> (bvuge (bvurem #xe915f7a8  bv_4) (bvmul #x03853123  #x018d8ebc )) (and (or false bool_2) (bvugt #x2ab28f61  bv_4))))
(assert (bvslt (bvmul (bvnand #xb108f9ee  #x7311dacd ) (bvsmod bv_4 #x8fb26ff1 )) (bvurem (bvxor bv_0 bv_1) (bvsrem #xc550688b  #x54ee6491 ))))
(check-sat)
(exit)
